<?xml version="1.0" encoding="UTF-8"?><osil xmlns="os.optimizationservices.org" xmlns:xsi="http://www.w3.org/2001/XMLSchema-instance" xsi:schemaLocation="os.optimizationservices.org http://www.optimizationservices.org/schemas/2.0/OSiL.xsd"><instanceHeader><name>kriging_peaks-red020</name></instanceHeader><instanceData><variables numberOfVariables="2"><var name="x1" lb="-3" ub="3"/><var name="x2" lb="-3" ub="3"/></variables><objectives><obj maxOrMin="min" constant=".50206779640133" name="defObj_objvar" numberOfObjCoef="0"/></objectives><nonlinearExpressions numberOfNonlinearExpressions="1"><nl idx="-1"><product><sum><product><sum><product><sum><product><sqrt><sum><product><square><sum><number value="-.296051567570993"/><variable idx="0" coef="-.166666666666667"/></sum></square><number value=".73427818977281"/></product><product><square><sum><number value="-.332922698952783"/><variable idx="1" coef="-.166666666666667"/></sum></square><number value="9.84239329440621"/></product></sum></sqrt><number value="2.23606797749979"/></product><product><sum><product><square><sum><number value="-.296051567570993"/><variable idx="0" coef="-.166666666666667"/></sum></square><number value=".73427818977281"/></product><product><square><sum><number value="-.332922698952783"/><variable idx="1" coef="-.166666666666667"/></sum></square><number value="9.84239329440621"/></product></sum><number value="1.66666666666667"/></product></sum><number value="7.93029005459249e-3"/></product><number value="7.93029005459249e-3"/></sum><exp><product><sqrt><sum><product><square><sum><number value="-.296051567570993"/><variable idx="0" coef="-.166666666666667"/></sum></square><number value=".73427818977281"/></product><product><square><sum><number value="-.332922698952783"/><variable idx="1" coef="-.166666666666667"/></sum></square><number value="9.84239329440621"/></product></sum></sqrt><number value="-2.23606797749979"/></product></exp></product><negate><product><sum><product><sum><product><sqrt><sum><product><square><sum><number value="-.114134289781611"/><variable idx="0" coef="-.166666666666667"/></sum></square><number value=".73427818977281"/></product><product><square><sum><number value=".210629474506774"/><variable idx="1" coef="-.166666666666667"/></sum></square><number value="9.84239329440621"/></product></sum></sqrt><number value="2.23606797749979"/></product><product><sum><product><square><sum><number value="-.114134289781611"/><variable idx="0" coef="-.166666666666667"/></sum></square><number value=".73427818977281"/></product><product><square><sum><number value=".210629474506774"/><variable idx="1" coef="-.166666666666667"/></sum></square><number value="9.84239329440621"/></product></sum><number value="1.66666666666667"/></product></sum><number value="8.17257968484589e-2"/></product><number value="8.17257968484589e-2"/></sum><exp><product><sqrt><sum><product><square><sum><number value="-.114134289781611"/><variable idx="0" coef="-.166666666666667"/></sum></square><number value=".73427818977281"/></product><product><square><sum><number value=".210629474506774"/><variable idx="1" coef="-.166666666666667"/></sum></square><number value="9.84239329440621"/></product></sum></sqrt><number value="-2.23606797749979"/></product></exp></product></negate><negate><product><sum><product><sum><product><sqrt><sum><product><square><sum><number value=".236967756917555"/><variable idx="0" coef="-.166666666666667"/></sum></square><number value=".73427818977281"/></product><product><square><sum><number value=".252652716266839"/><variable idx="1" coef="-.166666666666667"/></sum></square><number value="9.84239329440621"/></product></sum></sqrt><number value="2.23606797749979"/></product><product><sum><product><square><sum><number value=".236967756917555"/><variable idx="0" coef="-.166666666666667"/></sum></square><number value=".73427818977281"/></product><product><square><sum><number value=".252652716266839"/><variable idx="1" coef="-.166666666666667"/></sum></square><number value="9.84239329440621"/></product></sum><number value="1.66666666666667"/></product></sum><number value="1.95883345333713e-2"/></product><number value="1.95883345333713e-2"/></sum><exp><product><sqrt><sum><product><square><sum><number value=".236967756917555"/><variable idx="0" coef="-.166666666666667"/></sum></square><number value=".73427818977281"/></product><product><square><sum><number value=".252652716266839"/><variable idx="1" coef="-.166666666666667"/></sum></square><number value="9.84239329440621"/></product></sum></sqrt><number value="-2.23606797749979"/></product></exp></product></negate><product><sum><product><sum><product><sqrt><sum><product><square><sum><number value=".152741639941018"/><variable idx="0" coef="-.166666666666667"/></sum></square><number value=".73427818977281"/></product><product><square><sum><number value="-.419722496392701"/><variable idx="1" coef="-.166666666666667"/></sum></square><number value="9.84239329440621"/></product></sum></sqrt><number value="2.23606797749979"/></product><product><sum><product><square><sum><number value=".152741639941018"/><variable idx="0" coef="-.166666666666667"/></sum></square><number value=".73427818977281"/></product><product><square><sum><number value="-.419722496392701"/><variable idx="1" coef="-.166666666666667"/></sum></square><number value="9.84239329440621"/></product></sum><number value="1.66666666666667"/></product></sum><number value="2.91783688013098e-2"/></product><number value="2.91783688013098e-2"/></sum><exp><product><sqrt><sum><product><square><sum><number value=".152741639941018"/><variable idx="0" coef="-.166666666666667"/></sum></square><number value=".73427818977281"/></product><product><square><sum><number value="-.419722496392701"/><variable idx="1" coef="-.166666666666667"/></sum></square><number value="9.84239329440621"/></product></sum></sqrt><number value="-2.23606797749979"/></product></exp></product><product><sum><product><sum><product><sqrt><sum><product><square><sum><number value="-.226947162875829"/><variable idx="0" coef="-.166666666666667"/></sum></square><number value=".73427818977281"/></product><product><square><sum><number value="-.267754124173417"/><variable idx="1" coef="-.166666666666667"/></sum></square><number value="9.84239329440621"/></product></sum></sqrt><number value="2.23606797749979"/></product><product><sum><product><square><sum><number value="-.226947162875829"/><variable idx="0" coef="-.166666666666667"/></sum></square><number value=".73427818977281"/></product><product><square><sum><number value="-.267754124173417"/><variable idx="1" coef="-.166666666666667"/></sum></square><number value="9.84239329440621"/></product></sum><number value="1.66666666666667"/></product></sum><number value="3.25119550262763e-3"/></product><number value="3.25119550262763e-3"/></sum><exp><product><sqrt><sum><product><square><sum><number value="-.226947162875829"/><variable idx="0" coef="-.166666666666667"/></sum></square><number value=".73427818977281"/></product><product><square><sum><number value="-.267754124173417"/><variable idx="1" coef="-.166666666666667"/></sum></square><number value="9.84239329440621"/></product></sum></sqrt><number value="-2.23606797749979"/></product></exp></product><product><sum><product><sum><product><sqrt><sum><product><square><sum><number value="-.304487512086195"/><variable idx="0" coef="-.166666666666667"/></sum></square><number value=".73427818977281"/></product><product><square><sum><number value=".32234538166963"/><variable idx="1" coef="-.166666666666667"/></sum></square><number value="9.84239329440621"/></product></sum></sqrt><number value="2.23606797749979"/></product><product><sum><product><square><sum><number value="-.304487512086195"/><variable idx="0" coef="-.166666666666667"/></sum></square><number value=".73427818977281"/></product><product><square><sum><number value=".32234538166963"/><variable idx="1" coef="-.166666666666667"/></sum></square><number value="9.84239329440621"/></product></sum><number value="1.66666666666667"/></product></sum><number value="1.19653901186555e-2"/></product><number value="1.19653901186555e-2"/></sum><exp><product><sqrt><sum><product><square><sum><number value="-.304487512086195"/><variable idx="0" coef="-.166666666666667"/></sum></square><number value=".73427818977281"/></product><product><square><sum><number value=".32234538166963"/><variable idx="1" coef="-.166666666666667"/></sum></square><number value="9.84239329440621"/></product></sum></sqrt><number value="-2.23606797749979"/></product></exp></product><negate><product><sum><product><sum><product><sqrt><sum><product><square><sum><number value=".290016403526876"/><variable idx="0" coef="-.166666666666667"/></sum></square><number value=".73427818977281"/></product><product><square><sum><number value=".163073561881453"/><variable idx="1" coef="-.166666666666667"/></sum></square><number value="9.84239329440621"/></product></sum></sqrt><number value="2.23606797749979"/></product><product><sum><product><square><sum><number value=".290016403526876"/><variable idx="0" coef="-.166666666666667"/></sum></square><number value=".73427818977281"/></product><product><square><sum><number value=".163073561881453"/><variable idx="1" coef="-.166666666666667"/></sum></square><number value="9.84239329440621"/></product></sum><number value="1.66666666666667"/></product></sum><number value="1.22437988218235e-2"/></product><number value="1.22437988218235e-2"/></sum><exp><product><sqrt><sum><product><square><sum><number value=".290016403526876"/><variable idx="0" coef="-.166666666666667"/></sum></square><number value=".73427818977281"/></product><product><square><sum><number value=".163073561881453"/><variable idx="1" coef="-.166666666666667"/></sum></square><number value="9.84239329440621"/></product></sum></sqrt><number value="-2.23606797749979"/></product></exp></product></negate><negate><product><sum><product><sum><product><sqrt><sum><product><square><sum><number value="-2.8422744107951e-2"/><variable idx="0" coef="-.166666666666667"/></sum></square><number value=".73427818977281"/></product><product><square><sum><number value="-.114220818191337"/><variable idx="1" coef="-.166666666666667"/></sum></square><number value="9.84239329440621"/></product></sum></sqrt><number value="2.23606797749979"/></product><product><sum><product><square><sum><number value="-2.8422744107951e-2"/><variable idx="0" coef="-.166666666666667"/></sum></square><number value=".73427818977281"/></product><product><square><sum><number value="-.114220818191337"/><variable idx="1" coef="-.166666666666667"/></sum></square><number value="9.84239329440621"/></product></sum><number value="1.66666666666667"/></product></sum><number value="5.98894187216831e-2"/></product><number value="5.98894187216831e-2"/></sum><exp><product><sqrt><sum><product><square><sum><number value="-2.8422744107951e-2"/><variable idx="0" coef="-.166666666666667"/></sum></square><number value=".73427818977281"/></product><product><square><sum><number value="-.114220818191337"/><variable idx="1" coef="-.166666666666667"/></sum></square><number value="9.84239329440621"/></product></sum></sqrt><number value="-2.23606797749979"/></product></exp></product></negate><product><sum><product><sum><product><sqrt><sum><product><square><sum><number value=".432437642614655"/><variable idx="0" coef="-.166666666666667"/></sum></square><number value=".73427818977281"/></product><product><square><sum><number value="-7.34305425446243e-2"/><variable idx="1" coef="-.166666666666667"/></sum></square><number value="9.84239329440621"/></product></sum></sqrt><number value="2.23606797749979"/></product><product><sum><product><square><sum><number value=".432437642614655"/><variable idx="0" coef="-.166666666666667"/></sum></square><number value=".73427818977281"/></product><product><square><sum><number value="-7.34305425446243e-2"/><variable idx="1" coef="-.166666666666667"/></sum></square><number value="9.84239329440621"/></product></sum><number value="1.66666666666667"/></product></sum><number value="7.35040755529198e-3"/></product><number value="7.35040755529198e-3"/></sum><exp><product><sqrt><sum><product><square><sum><number value=".432437642614655"/><variable idx="0" coef="-.166666666666667"/></sum></square><number value=".73427818977281"/></product><product><square><sum><number value="-7.34305425446243e-2"/><variable idx="1" coef="-.166666666666667"/></sum></square><number value="9.84239329440621"/></product></sum></sqrt><number value="-2.23606797749979"/></product></exp></product><negate><product><sum><product><sum><product><sqrt><sum><product><square><sum><number value="9.88872147054509e-3"/><variable idx="0" coef="-.166666666666667"/></sum></square><number value=".73427818977281"/></product><product><square><sum><number value=".130133547648043"/><variable idx="1" coef="-.166666666666667"/></sum></square><number value="9.84239329440621"/></product></sum></sqrt><number value="2.23606797749979"/></product><product><sum><product><square><sum><number value="9.88872147054509e-3"/><variable idx="0" coef="-.166666666666667"/></sum></square><number value=".73427818977281"/></product><product><square><sum><number value=".130133547648043"/><variable idx="1" coef="-.166666666666667"/></sum></square><number value="9.84239329440621"/></product></sum><number value="1.66666666666667"/></product></sum><number value="2.50062493467898e-2"/></product><number value="2.50062493467898e-2"/></sum><exp><product><sqrt><sum><product><square><sum><number value="9.88872147054509e-3"/><variable idx="0" coef="-.166666666666667"/></sum></square><number value=".73427818977281"/></product><product><square><sum><number value=".130133547648043"/><variable idx="1" coef="-.166666666666667"/></sum></square><number value="9.84239329440621"/></product></sum></sqrt><number value="-2.23606797749979"/></product></exp></product></negate><product><sum><product><sum><product><sqrt><sum><product><square><sum><number value="-.486352317260064"/><variable idx="0" coef="-.166666666666667"/></sum></square><number value=".73427818977281"/></product><product><square><sum><number value="-2.92101825999737e-2"/><variable idx="1" coef="-.166666666666667"/></sum></square><number value="9.84239329440621"/></product></sum></sqrt><number value="2.23606797749979"/></product><product><sum><product><square><sum><number value="-.486352317260064"/><variable idx="0" coef="-.166666666666667"/></sum></square><number value=".73427818977281"/></product><product><square><sum><number value="-2.92101825999737e-2"/><variable idx="1" coef="-.166666666666667"/></sum></square><number value="9.84239329440621"/></product></sum><number value="1.66666666666667"/></product></sum><number value="1.32702698034036e-2"/></product><number value="1.32702698034036e-2"/></sum><exp><product><sqrt><sum><product><square><sum><number value="-.486352317260064"/><variable idx="0" coef="-.166666666666667"/></sum></square><number value=".73427818977281"/></product><product><square><sum><number value="-2.92101825999737e-2"/><variable idx="1" coef="-.166666666666667"/></sum></square><number value="9.84239329440621"/></product></sum></sqrt><number value="-2.23606797749979"/></product></exp></product><product><sum><product><sum><product><sqrt><sum><product><square><sum><number value="-.442402828611114"/><variable idx="0" coef="-.166666666666667"/></sum></square><number value=".73427818977281"/></product><product><square><sum><number value="-.381430783672409"/><variable idx="1" coef="-.166666666666667"/></sum></square><number value="9.84239329440621"/></product></sum></sqrt><number value="2.23606797749979"/></product><product><sum><product><square><sum><number value="-.442402828611114"/><variable idx="0" coef="-.166666666666667"/></sum></square><number value=".73427818977281"/></product><product><square><sum><number value="-.381430783672409"/><variable idx="1" coef="-.166666666666667"/></sum></square><number value="9.84239329440621"/></product></sum><number value="1.66666666666667"/></product></sum><number value="9.78837984043915e-3"/></product><number value="9.78837984043915e-3"/></sum><exp><product><sqrt><sum><product><square><sum><number value="-.442402828611114"/><variable idx="0" coef="-.166666666666667"/></sum></square><number value=".73427818977281"/></product><product><square><sum><number value="-.381430783672409"/><variable idx="1" coef="-.166666666666667"/></sum></square><number value="9.84239329440621"/></product></sum></sqrt><number value="-2.23606797749979"/></product></exp></product><product><sum><product><sum><product><sqrt><sum><product><square><sum><number value="6.30833526449023e-2"/><variable idx="0" coef="-.166666666666667"/></sum></square><number value=".73427818977281"/></product><product><square><sum><number value="-.161803864149878"/><variable idx="1" coef="-.166666666666667"/></sum></square><number value="9.84239329440621"/></product></sum></sqrt><number value="2.23606797749979"/></product><product><sum><product><square><sum><number value="6.30833526449023e-2"/><variable idx="0" coef="-.166666666666667"/></sum></square><number value=".73427818977281"/></product><product><square><sum><number value="-.161803864149878"/><variable idx="1" coef="-.166666666666667"/></sum></square><number value="9.84239329440621"/></product></sum><number value="1.66666666666667"/></product></sum><number value="6.16534293016391e-2"/></product><number value="6.16534293016391e-2"/></sum><exp><product><sqrt><sum><product><square><sum><number value="6.30833526449023e-2"/><variable idx="0" coef="-.166666666666667"/></sum></square><number value=".73427818977281"/></product><product><square><sum><number value="-.161803864149878"/><variable idx="1" coef="-.166666666666667"/></sum></square><number value="9.84239329440621"/></product></sum></sqrt><number value="-2.23606797749979"/></product></exp></product><product><sum><product><sum><product><sqrt><sum><product><square><sum><number value=".339284400175223"/><variable idx="0" coef="-.166666666666667"/></sum></square><number value=".73427818977281"/></product><product><square><sum><number value="-.240356107705697"/><variable idx="1" coef="-.166666666666667"/></sum></square><number value="9.84239329440621"/></product></sum></sqrt><number value="2.23606797749979"/></product><product><sum><product><square><sum><number value=".339284400175223"/><variable idx="0" coef="-.166666666666667"/></sum></square><number value=".73427818977281"/></product><product><square><sum><number value="-.240356107705697"/><variable idx="1" coef="-.166666666666667"/></sum></square><number value="9.84239329440621"/></product></sum><number value="1.66666666666667"/></product></sum><number value="8.06430230107368e-3"/></product><number value="8.06430230107368e-3"/></sum><exp><product><sqrt><sum><product><square><sum><number value=".339284400175223"/><variable idx="0" coef="-.166666666666667"/></sum></square><number value=".73427818977281"/></product><product><square><sum><number value="-.240356107705697"/><variable idx="1" coef="-.166666666666667"/></sum></square><number value="9.84239329440621"/></product></sum></sqrt><number value="-2.23606797749979"/></product></exp></product><product><sum><product><sum><product><sqrt><sum><product><square><sum><number value=".474011769354471"/><variable idx="0" coef="-.166666666666667"/></sum></square><number value=".73427818977281"/></product><product><square><sum><number value="-.473217136809233"/><variable idx="1" coef="-.166666666666667"/></sum></square><number value="9.84239329440621"/></product></sum></sqrt><number value="2.23606797749979"/></product><product><sum><product><square><sum><number value=".474011769354471"/><variable idx="0" coef="-.166666666666667"/></sum></square><number value=".73427818977281"/></product><product><square><sum><number value="-.473217136809233"/><variable idx="1" coef="-.166666666666667"/></sum></square><number value="9.84239329440621"/></product></sum><number value="1.66666666666667"/></product></sum><number value="1.00201036166177e-2"/></product><number value="1.00201036166177e-2"/></sum><exp><product><sqrt><sum><product><square><sum><number value=".474011769354471"/><variable idx="0" coef="-.166666666666667"/></sum></square><number value=".73427818977281"/></product><product><square><sum><number value="-.473217136809233"/><variable idx="1" coef="-.166666666666667"/></sum></square><number value="9.84239329440621"/></product></sum></sqrt><number value="-2.23606797749979"/></product></exp></product><product><sum><product><sum><product><sqrt><sum><product><square><sum><number value="-.38713502516494"/><variable idx="0" coef="-.166666666666667"/></sum></square><number value=".73427818977281"/></product><product><square><sum><number value=".423555128783197"/><variable idx="1" coef="-.166666666666667"/></sum></square><number value="9.84239329440621"/></product></sum></sqrt><number value="2.23606797749979"/></product><product><sum><product><square><sum><number value="-.38713502516494"/><variable idx="0" coef="-.166666666666667"/></sum></square><number value=".73427818977281"/></product><product><square><sum><number value=".423555128783197"/><variable idx="1" coef="-.166666666666667"/></sum></square><number value="9.84239329440621"/></product></sum><number value="1.66666666666667"/></product></sum><number value="1.59637159138592e-2"/></product><number value="1.59637159138592e-2"/></sum><exp><product><sqrt><sum><product><square><sum><number value="-.38713502516494"/><variable idx="0" coef="-.166666666666667"/></sum></square><number value=".73427818977281"/></product><product><square><sum><number value=".423555128783197"/><variable idx="1" coef="-.166666666666667"/></sum></square><number value="9.84239329440621"/></product></sum></sqrt><number value="-2.23606797749979"/></product></exp></product><negate><product><sum><product><sum><product><sqrt><sum><product><square><sum><number value="-6.44378540136621e-2"/><variable idx="0" coef="-.166666666666667"/></sum></square><number value=".73427818977281"/></product><product><square><sum><number value=".365720321769559"/><variable idx="1" coef="-.166666666666667"/></sum></square><number value="9.84239329440621"/></product></sum></sqrt><number value="2.23606797749979"/></product><product><sum><product><square><sum><number value="-6.44378540136621e-2"/><variable idx="0" coef="-.166666666666667"/></sum></square><number value=".73427818977281"/></product><product><square><sum><number value=".365720321769559"/><variable idx="1" coef="-.166666666666667"/></sum></square><number value="9.84239329440621"/></product></sum><number value="1.66666666666667"/></product></sum><number value="7.40730531953568e-2"/></product><number value="7.40730531953568e-2"/></sum><exp><product><sqrt><sum><product><square><sum><number value="-6.44378540136621e-2"/><variable idx="0" coef="-.166666666666667"/></sum></square><number value=".73427818977281"/></product><product><square><sum><number value=".365720321769559"/><variable idx="1" coef="-.166666666666667"/></sum></square><number value="9.84239329440621"/></product></sum></sqrt><number value="-2.23606797749979"/></product></exp></product></negate><product><sum><product><sum><product><sqrt><sum><product><square><sum><number value=".13794971820171"/><variable idx="0" coef="-.166666666666667"/></sum></square><number value=".73427818977281"/></product><product><square><sum><number value=".467908882200314"/><variable idx="1" coef="-.166666666666667"/></sum></square><number value="9.84239329440621"/></product></sum></sqrt><number value="2.23606797749979"/></product><product><sum><product><square><sum><number value=".13794971820171"/><variable idx="0" coef="-.166666666666667"/></sum></square><number value=".73427818977281"/></product><product><square><sum><number value=".467908882200314"/><variable idx="1" coef="-.166666666666667"/></sum></square><number value="9.84239329440621"/></product></sum><number value="1.66666666666667"/></product></sum><number value="7.74573140270751e-3"/></product><number value="7.74573140270751e-3"/></sum><exp><product><sqrt><sum><product><square><sum><number value=".13794971820171"/><variable idx="0" coef="-.166666666666667"/></sum></square><number value=".73427818977281"/></product><product><square><sum><number value=".467908882200314"/><variable idx="1" coef="-.166666666666667"/></sum></square><number value="9.84239329440621"/></product></sum></sqrt><number value="-2.23606797749979"/></product></exp></product><product><sum><product><sum><product><sqrt><sum><product><square><sum><number value="-.198460020780232"/><variable idx="0" coef="-.166666666666667"/></sum></square><number value=".73427818977281"/></product><product><square><sum><number value="4.18145422582042e-2"/><variable idx="1" coef="-.166666666666667"/></sum></square><number value="9.84239329440621"/></product></sum></sqrt><number value="2.23606797749979"/></product><product><sum><product><square><sum><number value="-.198460020780232"/><variable idx="0" coef="-.166666666666667"/></sum></square><number value=".73427818977281"/></product><product><square><sum><number value="4.18145422582042e-2"/><variable idx="1" coef="-.166666666666667"/></sum></square><number value="9.84239329440621"/></product></sum><number value="1.66666666666667"/></product></sum><number value="8.65462302102454e-2"/></product><number value="8.65462302102454e-2"/></sum><exp><product><sqrt><sum><product><square><sum><number value="-.198460020780232"/><variable idx="0" coef="-.166666666666667"/></sum></square><number value=".73427818977281"/></product><product><square><sum><number value="4.18145422582042e-2"/><variable idx="1" coef="-.166666666666667"/></sum></square><number value="9.84239329440621"/></product></sum></sqrt><number value="-2.23606797749979"/></product></exp></product><product><sum><product><sum><product><sqrt><sum><product><square><sum><number value=".383470054705633"/><variable idx="0" coef="-.166666666666667"/></sum></square><number value=".73427818977281"/></product><product><square><sum><number value="9.26285234607758e-2"/><variable idx="1" coef="-.166666666666667"/></sum></square><number value="9.84239329440621"/></product></sum></sqrt><number value="2.23606797749979"/></product><product><sum><product><square><sum><number value=".383470054705633"/><variable idx="0" coef="-.166666666666667"/></sum></square><number value=".73427818977281"/></product><product><square><sum><number value="9.26285234607758e-2"/><variable idx="1" coef="-.166666666666667"/></sum></square><number value="9.84239329440621"/></product></sum><number value="1.66666666666667"/></product></sum><number value="3.16326615674027e-3"/></product><number value="3.16326615674027e-3"/></sum><exp><product><sqrt><sum><product><square><sum><number value=".383470054705633"/><variable idx="0" coef="-.166666666666667"/></sum></square><number value=".73427818977281"/></product><product><square><sum><number value="9.26285234607758e-2"/><variable idx="1" coef="-.166666666666667"/></sum></square><number value="9.84239329440621"/></product></sum></sqrt><number value="-2.23606797749979"/></product></exp></product></sum><number value="-1.60096340792774"/></product></nl></nonlinearExpressions></instanceData></osil>